c Random 7-CNF over 30 variables and 150 clauses
c Generated with `cnfgen`
c (C) 2012-2016 Massimo Lauria <lauria.massimo@gmail.com>
c https://massimolauria.github.io/cnfgen
c
c COMMAND LINE: cnfgen --output tmp-7-30-150.dimacs --output-format dimacs randkcnf 7 30 150
c
c sdimacs generated by gen-sdimacs
c
p cnf 30 150
r 0.5 1 2 3 4 5 6 7 8 9 10 11 12 13 14 15 0
e  16 17 18 19 20 21 22 23 24 25 26 27 28 29 30 0
-3 -5 8 -9 10 -16 -18 0
-6 -9 16 19 21 25 -28 0
12 16 17 -21 -26 -27 30 0
-1 -8 9 -13 -14 -23 29 0
-3 -4 -6 10 11 -17 -20 0
3 4 -17 19 -23 -26 -27 0
2 6 11 -12 -13 -25 -27 0
-4 7 11 13 -14 17 30 0
-4 -8 -9 14 17 18 -29 0
1 11 -13 17 -21 -29 30 0
6 12 -21 -23 24 29 -30 0
-2 4 7 -9 16 18 19 0
-10 16 -19 21 23 27 -30 0
1 14 20 -22 24 -25 30 0
1 6 -7 20 21 22 26 0
-2 8 11 15 -16 -29 30 0
7 8 -10 22 23 24 27 0
1 10 15 16 -26 -28 29 0
4 8 15 18 23 25 26 0
4 5 17 -22 25 27 29 0
-3 9 21 -22 23 -28 30 0
3 4 5 -10 -17 21 29 0
-3 11 12 15 16 25 -27 0
-6 8 -13 -17 22 27 -29 0
8 -13 15 16 21 26 -29 0
1 -12 13 -19 -24 -27 30 0
1 2 -5 7 -12 17 -27 0
-6 -7 10 21 -22 -25 30 0
-1 -8 -11 -15 -17 18 -28 0
-2 5 9 15 16 19 -27 0
5 7 -14 -20 -23 26 30 0
2 7 11 -16 19 26 -27 0
3 -4 7 8 -11 -17 -27 0
-3 7 -11 -14 20 23 25 0
1 -6 -7 -9 14 -26 -27 0
-2 -3 -5 9 15 -17 -28 0
-8 9 -10 -16 -25 -26 -29 0
-1 -2 9 11 13 15 16 0
9 10 -19 -20 25 27 -30 0
7 -13 -20 22 25 29 30 0
3 4 -5 -12 24 25 -30 0
10 -12 -15 24 -25 27 28 0
2 -3 -10 12 23 -25 30 0
-2 12 -15 16 24 -28 -30 0
3 -13 17 -20 -23 -25 30 0
-2 -4 -8 -16 18 -23 26 0
2 5 9 -10 -12 28 30 0
-1 9 17 -18 24 25 27 0
-10 -11 14 17 -26 29 30 0
5 -6 -9 -16 22 -25 -26 0
6 -9 15 -16 26 -28 30 0
-4 8 -15 -16 25 26 -30 0
-3 -12 -13 -15 -18 -22 25 0
-1 2 -9 14 21 -23 29 0
-2 -4 -5 9 -15 -19 29 0
-7 -15 16 -18 -19 20 -29 0
9 -12 17 -19 21 25 -28 0
-7 9 14 16 17 28 29 0
6 11 15 16 18 -19 -22 0
-2 3 -13 17 -20 -22 28 0
-7 9 10 -11 15 -16 22 0
6 -14 17 -23 -24 -28 -29 0
3 -6 14 16 -20 -28 29 0
3 -9 15 16 -20 -29 -30 0
8 -9 10 -12 13 14 -20 0
1 6 -7 15 21 28 30 0
-2 -5 -6 9 18 -25 -29 0
10 13 17 18 19 -20 -30 0
2 8 -12 -13 18 28 30 0
1 -8 12 -20 22 -25 26 0
8 12 14 21 -25 -29 30 0
5 10 15 18 -19 -21 -24 0
1 -5 -18 -19 20 24 -30 0
-1 -3 -5 -7 10 16 26 0
-10 -14 15 17 -21 22 25 0
1 -2 4 13 -20 29 -30 0
5 7 -8 -11 12 -15 -24 0
-3 6 7 12 -27 -28 -30 0
1 2 -5 13 -16 22 -27 0
-1 4 8 -17 25 28 -30 0
-3 -5 -6 -16 21 -28 -29 0
4 7 -9 10 16 24 -30 0
-4 7 9 -10 14 -15 -24 0
3 7 13 -14 -15 18 19 0
8 -11 12 13 15 21 -29 0
3 4 9 17 19 20 26 0
3 -8 -16 17 22 -27 -29 0
1 2 3 6 -15 -17 30 0
-3 9 -10 16 19 -23 28 0
1 -5 13 -18 19 21 24 0
2 6 10 -21 22 -23 -28 0
7 -9 13 14 -21 22 27 0
1 -2 3 -9 -11 18 19 0
2 -6 12 -13 16 17 -23 0
4 11 17 -19 -27 28 -29 0
-6 9 14 -15 -23 -27 28 0
-11 -12 -20 24 -25 -28 30 0
3 -8 12 -18 20 24 -30 0
-4 -5 6 -8 -13 -14 26 0
3 -6 10 -13 -14 15 25 0
4 8 13 -14 17 -18 19 0
-4 9 13 14 -17 -19 -21 0
2 5 13 15 -21 -24 -29 0
-1 -9 14 16 18 -20 -24 0
-3 -4 -5 -15 17 -25 -29 0
-3 -8 -10 16 18 -23 30 0
-6 -7 -12 14 16 23 29 0
4 -10 -16 19 22 25 26 0
-5 -6 9 12 13 25 -29 0
-8 11 15 -16 -18 19 30 0
11 -13 -15 -21 -23 25 26 0
-8 13 -16 -23 27 -28 -30 0
6 8 -9 -16 17 24 26 0
2 5 7 -8 10 -22 26 0
-3 -7 9 -13 -14 -17 -26 0
1 -3 7 12 -19 -22 29 0
2 8 -15 17 21 -22 26 0
-4 19 -20 21 -23 -26 -27 0
-1 8 -9 14 22 -23 26 0
2 3 -14 -15 -17 19 25 0
1 -4 7 -9 25 -29 30 0
2 5 -8 -15 -16 -21 23 0
-1 8 -16 22 25 26 -27 0
-9 11 -21 22 -23 26 -30 0
4 -9 -10 12 13 16 24 0
2 -3 -7 -9 10 -16 19 0
-10 13 17 -18 25 -26 30 0
6 8 15 16 -19 -20 22 0
-1 -2 6 7 -8 -19 -28 0
3 8 12 14 -21 -25 29 0
-1 -5 -6 -15 -19 -29 30 0
3 -5 -13 19 24 27 -29 0
5 19 23 -24 -26 28 29 0
1 2 6 -11 13 -16 -25 0
2 -5 -7 -8 -19 27 -28 0
-9 -10 11 -15 20 -22 25 0
6 10 -12 -15 -16 -19 23 0
-1 3 7 11 -13 -18 -23 0
-4 -7 8 10 13 24 -29 0
-1 6 -18 -22 26 27 28 0
1 -7 -11 -12 18 22 -26 0
1 8 -10 18 -21 -25 27 0
-4 -8 -9 -12 -13 -16 -28 0
4 6 -8 10 13 14 19 0
6 9 12 23 -26 27 29 0
3 11 -12 -14 21 -25 29 0
2 -3 -15 20 -22 -29 30 0
4 5 -10 -13 -17 -20 26 0
1 7 18 -19 -20 21 -29 0
-3 -6 -8 -11 -12 -21 27 0
